!UKS wB97X-D4 EPR-III TightSCF

# Same as TrpC-dihedral-opt but rotated geometry

%pal
   nprocs 24
end

*xyz 1 2
N       13.18525047     -15.30694139       6.34165182
C       13.05015155     -15.38285425       4.89670705
C       14.33076846     -15.83599790       4.20048996
O       15.40768514     -15.84907470       4.72786330
C       12.66027700     -13.98828379       4.34283110
C       11.46691846     -13.51393894       5.08586110
C       11.50899930     -12.73528182       6.28558176
C       10.11722092     -13.88701382       4.91607705
N       10.29376083     -12.62248730       6.79151036
C        9.37648692     -13.32631672       5.98102013
C        9.45255764     -14.65565904       3.94382434
C        8.02610342     -13.49550656       6.12369248
C        8.08613410     -14.83788090       4.07307342
C        7.38720965     -14.26874487       5.14053330
O       14.10502622     -16.17639423       2.92264021
H       14.95052504     -16.43071765       2.52069039
H       14.14514555     -15.06596884       6.57491517
H       13.01269935     -16.21005098       6.76598401
H       12.25433855     -16.08681777       4.64135266
H       12.45666524     -14.05340577       3.27227777
H       13.49537730     -13.29760838       4.48871478
H       12.37227680     -12.28683465       6.75652387
H       10.06116479     -12.12195716       7.63680029
H        9.99572077     -15.08845606       3.11127714
H        7.46655361     -13.06444100       6.94549207
H        7.54722632     -15.42436502       3.33919178
H        6.31728120     -14.42600282       5.21558992
*

%eprnmr
    Nuclei = all N { aiso, adip, aorb }
    Nuclei = all H { aiso, adip, aorb }
end
